p tw 157 289
1 79
1 80
1 155
1 156
2 90
2 91
2 107
2 108
3 50
3 51
3 116
3 117
3 126
3 127
4 68
4 69
4 136
4 137
5 72
5 73
5 147
5 148
6 55
6 56
6 114
6 115
7 70
7 71
7 144
7 145
8 76
8 77
8 152
8 153
9 49
9 50
9 125
9 126
10 91
10 106
10 107
11 92
11 132
11 133
12 14
12 87
12 88
12 117
13 92
13 93
13 135
13 136
14 94
14 95
14 117
15 113
15 114
15 124
15 125
16 67
16 134
16 135
17 87
17 112
17 113
18 59
18 60
18 108
18 109
18 148
18 149
19 25
19 81
19 82
19 157
20 98
20 149
20 150
21 103
21 104
21 150
21 151
22 85
22 86
22 109
22 110
22 119
22 120
23 86
23 121
23 122
24 65
24 66
24 110
24 111
25 83
25 84
25 157
26 96
26 97
26 142
26 143
27 57
27 58
27 143
27 144
28 61
28 62
28 153
28 154
29 66
29 122
29 123
30 93
30 94
30 138
30 139
31 47
31 48
31 118
31 119
32 52
32 130
32 131
33 52
33 53
33 131
33 132
34 54
34 55
34 133
34 134
35 78
35 79
35 154
35 155
36 74
36 75
36 151
36 152
37 89
37 90
37 105
37 106
37 128
37 129
38 56
38 57
38 139
38 140
39 58
39 59
39 145
39 146
40 104
40 156
40 157
41 99
41 100
41 129
41 130
42 69
42 70
42 105
42 141
42 142
43 63
43 64
43 120
43 121
44 97
44 98
44 146
44 147
45 101
45 102
45 140
45 141
46 67
46 68
46 115
46 116
46 137
46 138
47 48
47 118
48 49
49 50
50 51
51 127
52 53
53 54
54 55
55 56
56 57
57 58
58 59
59 60
60 61
61 62
62 63
63 64
64 65
65 66
67 68
68 69
69 70
70 71
71 72
72 73
73 74
74 75
75 76
76 77
77 78
78 79
79 80
80 81
81 82
82 83
83 84
84 85
85 86
87 88
88 89
89 90
90 91
92 93
93 94
94 95
95 96
96 97
97 98
99 100
99 128
100 101
101 102
102 103
103 104
105 106
106 107
107 108
108 109
109 110
110 111
111 112
112 113
113 114
114 115
115 116
116 117
118 119
119 120
120 121
121 122
122 123
123 124
124 125
125 126
126 127
128 129
129 130
130 131
131 132
132 133
133 134
134 135
135 136
136 137
137 138
138 139
139 140
140 141
141 142
142 143
143 144
144 145
145 146
146 147
147 148
148 149
149 150
150 151
151 152
152 153
153 154
154 155
155 156
156 157
